% Auto-generated by scripts/generate_dzn.py
% problem_type   = shift_scheduling
% instance       = shift_scheduling_6
% source_json    = instances_json/1_medium_blowup/shift_scheduling_6.json
% blowup         = 2.4408602150537635
% representation = DFA

mode = 0;

sequence_length = 28;
n_constraints = 3;
Q = 129;
S = 4;
q0 = [1, 1, 1];
F = [{65}, {33}, {129}];
d_dfa = array3d(1..3, 1..129, 1..4, [
  % k = 1
    1, 1, 2, 1,
    3, 3, 4, 3,
    5, 5, 6, 5,
    7, 7, 8, 7,
    9, 9, 10, 9,
    11, 11, 12, 11,
    13, 13, 14, 13,
    15, 15, 16, 15,
    17, 17, 18, 17,
    19, 19, 20, 19,
    21, 21, 22, 21,
    23, 23, 24, 23,
    25, 25, 26, 25,
    27, 27, 28, 27,
    29, 29, 30, 29,
    31, 31, 32, 31,
    33, 33, 34, 33,
    35, 35, 36, 35,
    37, 37, 38, 37,
    39, 39, 40, 39,
    41, 41, 42, 41,
    43, 43, 44, 43,
    45, 45, 46, 45,
    47, 47, 48, 47,
    49, 49, 50, 49,
    51, 51, 52, 51,
    53, 53, 54, 53,
    55, 55, 56, 55,
    57, 57, 58, 57,
    59, 59, 60, 59,
    61, 61, 62, 61,
    63, 63, 64, 63,
    1, 1, 2, 65,
    3, 3, 4, 65,
    5, 5, 6, 65,
    7, 7, 8, 65,
    9, 9, 10, 65,
    11, 11, 12, 65,
    13, 13, 14, 65,
    15, 15, 16, 65,
    17, 17, 18, 65,
    19, 19, 20, 65,
    21, 21, 22, 65,
    23, 23, 24, 65,
    25, 25, 26, 65,
    27, 27, 28, 65,
    29, 29, 30, 65,
    31, 31, 32, 65,
    33, 33, 34, 65,
    35, 35, 36, 65,
    37, 37, 38, 65,
    39, 39, 40, 65,
    41, 41, 42, 65,
    43, 43, 44, 65,
    45, 45, 46, 65,
    47, 47, 48, 65,
    49, 49, 50, 65,
    51, 51, 52, 65,
    53, 53, 54, 65,
    55, 55, 56, 65,
    57, 57, 58, 65,
    59, 59, 60, 65,
    61, 61, 62, 65,
    63, 63, 64, 65,
    65, 65, 65, 65,
    0, 0, 0, 0,
    0, 0, 0, 0,
    0, 0, 0, 0,
    0, 0, 0, 0,
    0, 0, 0, 0,
    0, 0, 0, 0,
    0, 0, 0, 0,
    0, 0, 0, 0,
    0, 0, 0, 0,
    0, 0, 0, 0,
    0, 0, 0, 0,
    0, 0, 0, 0,
    0, 0, 0, 0,
    0, 0, 0, 0,
    0, 0, 0, 0,
    0, 0, 0, 0,
    0, 0, 0, 0,
    0, 0, 0, 0,
    0, 0, 0, 0,
    0, 0, 0, 0,
    0, 0, 0, 0,
    0, 0, 0, 0,
    0, 0, 0, 0,
    0, 0, 0, 0,
    0, 0, 0, 0,
    0, 0, 0, 0,
    0, 0, 0, 0,
    0, 0, 0, 0,
    0, 0, 0, 0,
    0, 0, 0, 0,
    0, 0, 0, 0,
    0, 0, 0, 0,
    0, 0, 0, 0,
    0, 0, 0, 0,
    0, 0, 0, 0,
    0, 0, 0, 0,
    0, 0, 0, 0,
    0, 0, 0, 0,
    0, 0, 0, 0,
    0, 0, 0, 0,
    0, 0, 0, 0,
    0, 0, 0, 0,
    0, 0, 0, 0,
    0, 0, 0, 0,
    0, 0, 0, 0,
    0, 0, 0, 0,
    0, 0, 0, 0,
    0, 0, 0, 0,
    0, 0, 0, 0,
    0, 0, 0, 0,
    0, 0, 0, 0,
    0, 0, 0, 0,
    0, 0, 0, 0,
    0, 0, 0, 0,
    0, 0, 0, 0,
    0, 0, 0, 0,
    0, 0, 0, 0,
    0, 0, 0, 0,
    0, 0, 0, 0,
    0, 0, 0, 0,
    0, 0, 0, 0,
    0, 0, 0, 0,
    0, 0, 0, 0,
    0, 0, 0, 0,

  % k = 2
    1, 2, 1, 1,
    3, 4, 3, 3,
    5, 6, 5, 5,
    7, 8, 7, 7,
    9, 10, 9, 9,
    11, 12, 11, 11,
    13, 14, 13, 13,
    15, 16, 15, 15,
    17, 18, 17, 17,
    19, 20, 19, 19,
    21, 22, 21, 21,
    23, 24, 23, 23,
    25, 26, 25, 25,
    27, 28, 27, 27,
    29, 30, 29, 29,
    31, 32, 31, 31,
    1, 2, 1, 33,
    3, 4, 3, 33,
    5, 6, 5, 33,
    7, 8, 7, 33,
    9, 10, 9, 33,
    11, 12, 11, 33,
    13, 14, 13, 33,
    15, 16, 15, 33,
    17, 18, 17, 33,
    19, 20, 19, 33,
    21, 22, 21, 33,
    23, 24, 23, 33,
    25, 26, 25, 33,
    27, 28, 27, 33,
    29, 30, 29, 33,
    31, 32, 31, 33,
    33, 33, 33, 33,
    0, 0, 0, 0,
    0, 0, 0, 0,
    0, 0, 0, 0,
    0, 0, 0, 0,
    0, 0, 0, 0,
    0, 0, 0, 0,
    0, 0, 0, 0,
    0, 0, 0, 0,
    0, 0, 0, 0,
    0, 0, 0, 0,
    0, 0, 0, 0,
    0, 0, 0, 0,
    0, 0, 0, 0,
    0, 0, 0, 0,
    0, 0, 0, 0,
    0, 0, 0, 0,
    0, 0, 0, 0,
    0, 0, 0, 0,
    0, 0, 0, 0,
    0, 0, 0, 0,
    0, 0, 0, 0,
    0, 0, 0, 0,
    0, 0, 0, 0,
    0, 0, 0, 0,
    0, 0, 0, 0,
    0, 0, 0, 0,
    0, 0, 0, 0,
    0, 0, 0, 0,
    0, 0, 0, 0,
    0, 0, 0, 0,
    0, 0, 0, 0,
    0, 0, 0, 0,
    0, 0, 0, 0,
    0, 0, 0, 0,
    0, 0, 0, 0,
    0, 0, 0, 0,
    0, 0, 0, 0,
    0, 0, 0, 0,
    0, 0, 0, 0,
    0, 0, 0, 0,
    0, 0, 0, 0,
    0, 0, 0, 0,
    0, 0, 0, 0,
    0, 0, 0, 0,
    0, 0, 0, 0,
    0, 0, 0, 0,
    0, 0, 0, 0,
    0, 0, 0, 0,
    0, 0, 0, 0,
    0, 0, 0, 0,
    0, 0, 0, 0,
    0, 0, 0, 0,
    0, 0, 0, 0,
    0, 0, 0, 0,
    0, 0, 0, 0,
    0, 0, 0, 0,
    0, 0, 0, 0,
    0, 0, 0, 0,
    0, 0, 0, 0,
    0, 0, 0, 0,
    0, 0, 0, 0,
    0, 0, 0, 0,
    0, 0, 0, 0,
    0, 0, 0, 0,
    0, 0, 0, 0,
    0, 0, 0, 0,
    0, 0, 0, 0,
    0, 0, 0, 0,
    0, 0, 0, 0,
    0, 0, 0, 0,
    0, 0, 0, 0,
    0, 0, 0, 0,
    0, 0, 0, 0,
    0, 0, 0, 0,
    0, 0, 0, 0,
    0, 0, 0, 0,
    0, 0, 0, 0,
    0, 0, 0, 0,
    0, 0, 0, 0,
    0, 0, 0, 0,
    0, 0, 0, 0,
    0, 0, 0, 0,
    0, 0, 0, 0,
    0, 0, 0, 0,
    0, 0, 0, 0,
    0, 0, 0, 0,
    0, 0, 0, 0,
    0, 0, 0, 0,
    0, 0, 0, 0,
    0, 0, 0, 0,
    0, 0, 0, 0,
    0, 0, 0, 0,
    0, 0, 0, 0,
    0, 0, 0, 0,
    0, 0, 0, 0,
    0, 0, 0, 0,

  % k = 3
    1, 1, 2, 1,
    3, 3, 4, 3,
    5, 5, 6, 5,
    7, 7, 8, 7,
    9, 9, 10, 9,
    11, 11, 12, 11,
    13, 13, 14, 13,
    15, 15, 16, 15,
    17, 17, 18, 17,
    19, 19, 20, 19,
    21, 21, 22, 21,
    23, 23, 24, 23,
    25, 25, 26, 25,
    27, 27, 28, 27,
    29, 29, 30, 29,
    31, 31, 32, 31,
    33, 33, 34, 33,
    35, 35, 36, 35,
    37, 37, 38, 37,
    39, 39, 40, 39,
    41, 41, 42, 41,
    43, 43, 44, 43,
    45, 45, 46, 45,
    47, 47, 48, 47,
    49, 49, 50, 49,
    51, 51, 52, 51,
    53, 53, 54, 53,
    55, 55, 56, 55,
    57, 57, 58, 57,
    59, 59, 60, 59,
    61, 61, 62, 61,
    63, 63, 64, 63,
    65, 65, 66, 65,
    67, 67, 68, 67,
    69, 69, 70, 69,
    71, 71, 72, 71,
    73, 73, 74, 73,
    75, 75, 76, 75,
    77, 77, 78, 77,
    79, 79, 80, 79,
    81, 81, 82, 81,
    83, 83, 84, 83,
    85, 85, 86, 85,
    87, 87, 88, 87,
    89, 89, 90, 89,
    91, 91, 92, 91,
    93, 93, 94, 93,
    95, 95, 96, 95,
    97, 97, 98, 97,
    99, 99, 100, 99,
    101, 101, 102, 101,
    103, 103, 104, 103,
    105, 105, 106, 105,
    107, 107, 108, 107,
    109, 109, 110, 109,
    111, 111, 112, 111,
    113, 113, 114, 113,
    115, 115, 116, 115,
    117, 117, 118, 117,
    119, 119, 120, 119,
    121, 121, 122, 121,
    123, 123, 124, 123,
    125, 125, 126, 125,
    127, 127, 128, 127,
    1, 1, 2, 129,
    3, 3, 4, 129,
    5, 5, 6, 129,
    7, 7, 8, 129,
    9, 9, 10, 129,
    11, 11, 12, 129,
    13, 13, 14, 129,
    15, 15, 16, 129,
    17, 17, 18, 129,
    19, 19, 20, 129,
    21, 21, 22, 129,
    23, 23, 24, 129,
    25, 25, 26, 129,
    27, 27, 28, 129,
    29, 29, 30, 129,
    31, 31, 32, 129,
    33, 33, 34, 129,
    35, 35, 36, 129,
    37, 37, 38, 129,
    39, 39, 40, 129,
    41, 41, 42, 129,
    43, 43, 44, 129,
    45, 45, 46, 129,
    47, 47, 48, 129,
    49, 49, 50, 129,
    51, 51, 52, 129,
    53, 53, 54, 129,
    55, 55, 56, 129,
    57, 57, 58, 129,
    59, 59, 60, 129,
    61, 61, 62, 129,
    63, 63, 64, 129,
    65, 65, 66, 129,
    67, 67, 68, 129,
    69, 69, 70, 129,
    71, 71, 72, 129,
    73, 73, 74, 129,
    75, 75, 76, 129,
    77, 77, 78, 129,
    79, 79, 80, 129,
    81, 81, 82, 129,
    83, 83, 84, 129,
    85, 85, 86, 129,
    87, 87, 88, 129,
    89, 89, 90, 129,
    91, 91, 92, 129,
    93, 93, 94, 129,
    95, 95, 96, 129,
    97, 97, 98, 129,
    99, 99, 100, 129,
    101, 101, 102, 129,
    103, 103, 104, 129,
    105, 105, 106, 129,
    107, 107, 108, 129,
    109, 109, 110, 129,
    111, 111, 112, 129,
    113, 113, 114, 129,
    115, 115, 116, 129,
    117, 117, 118, 129,
    119, 119, 120, 129,
    121, 121, 122, 129,
    123, 123, 124, 129,
    125, 125, 126, 129,
    127, 127, 128, 129,
    129, 129, 129, 129
]);
d_nfa = array3d(1..3, 1..129, 1..4, [
  % k = 1
    {}, {}, {}, {},
    {}, {}, {}, {},
    {}, {}, {}, {},
    {}, {}, {}, {},
    {}, {}, {}, {},
    {}, {}, {}, {},
    {}, {}, {}, {},
    {}, {}, {}, {},
    {}, {}, {}, {},
    {}, {}, {}, {},
    {}, {}, {}, {},
    {}, {}, {}, {},
    {}, {}, {}, {},
    {}, {}, {}, {},
    {}, {}, {}, {},
    {}, {}, {}, {},
    {}, {}, {}, {},
    {}, {}, {}, {},
    {}, {}, {}, {},
    {}, {}, {}, {},
    {}, {}, {}, {},
    {}, {}, {}, {},
    {}, {}, {}, {},
    {}, {}, {}, {},
    {}, {}, {}, {},
    {}, {}, {}, {},
    {}, {}, {}, {},
    {}, {}, {}, {},
    {}, {}, {}, {},
    {}, {}, {}, {},
    {}, {}, {}, {},
    {}, {}, {}, {},
    {}, {}, {}, {},
    {}, {}, {}, {},
    {}, {}, {}, {},
    {}, {}, {}, {},
    {}, {}, {}, {},
    {}, {}, {}, {},
    {}, {}, {}, {},
    {}, {}, {}, {},
    {}, {}, {}, {},
    {}, {}, {}, {},
    {}, {}, {}, {},
    {}, {}, {}, {},
    {}, {}, {}, {},
    {}, {}, {}, {},
    {}, {}, {}, {},
    {}, {}, {}, {},
    {}, {}, {}, {},
    {}, {}, {}, {},
    {}, {}, {}, {},
    {}, {}, {}, {},
    {}, {}, {}, {},
    {}, {}, {}, {},
    {}, {}, {}, {},
    {}, {}, {}, {},
    {}, {}, {}, {},
    {}, {}, {}, {},
    {}, {}, {}, {},
    {}, {}, {}, {},
    {}, {}, {}, {},
    {}, {}, {}, {},
    {}, {}, {}, {},
    {}, {}, {}, {},
    {}, {}, {}, {},
    {}, {}, {}, {},
    {}, {}, {}, {},
    {}, {}, {}, {},
    {}, {}, {}, {},
    {}, {}, {}, {},
    {}, {}, {}, {},
    {}, {}, {}, {},
    {}, {}, {}, {},
    {}, {}, {}, {},
    {}, {}, {}, {},
    {}, {}, {}, {},
    {}, {}, {}, {},
    {}, {}, {}, {},
    {}, {}, {}, {},
    {}, {}, {}, {},
    {}, {}, {}, {},
    {}, {}, {}, {},
    {}, {}, {}, {},
    {}, {}, {}, {},
    {}, {}, {}, {},
    {}, {}, {}, {},
    {}, {}, {}, {},
    {}, {}, {}, {},
    {}, {}, {}, {},
    {}, {}, {}, {},
    {}, {}, {}, {},
    {}, {}, {}, {},
    {}, {}, {}, {},
    {}, {}, {}, {},
    {}, {}, {}, {},
    {}, {}, {}, {},
    {}, {}, {}, {},
    {}, {}, {}, {},
    {}, {}, {}, {},
    {}, {}, {}, {},
    {}, {}, {}, {},
    {}, {}, {}, {},
    {}, {}, {}, {},
    {}, {}, {}, {},
    {}, {}, {}, {},
    {}, {}, {}, {},
    {}, {}, {}, {},
    {}, {}, {}, {},
    {}, {}, {}, {},
    {}, {}, {}, {},
    {}, {}, {}, {},
    {}, {}, {}, {},
    {}, {}, {}, {},
    {}, {}, {}, {},
    {}, {}, {}, {},
    {}, {}, {}, {},
    {}, {}, {}, {},
    {}, {}, {}, {},
    {}, {}, {}, {},
    {}, {}, {}, {},
    {}, {}, {}, {},
    {}, {}, {}, {},
    {}, {}, {}, {},
    {}, {}, {}, {},
    {}, {}, {}, {},
    {}, {}, {}, {},
    {}, {}, {}, {},
    {}, {}, {}, {},
    {}, {}, {}, {},

  % k = 2
    {}, {}, {}, {},
    {}, {}, {}, {},
    {}, {}, {}, {},
    {}, {}, {}, {},
    {}, {}, {}, {},
    {}, {}, {}, {},
    {}, {}, {}, {},
    {}, {}, {}, {},
    {}, {}, {}, {},
    {}, {}, {}, {},
    {}, {}, {}, {},
    {}, {}, {}, {},
    {}, {}, {}, {},
    {}, {}, {}, {},
    {}, {}, {}, {},
    {}, {}, {}, {},
    {}, {}, {}, {},
    {}, {}, {}, {},
    {}, {}, {}, {},
    {}, {}, {}, {},
    {}, {}, {}, {},
    {}, {}, {}, {},
    {}, {}, {}, {},
    {}, {}, {}, {},
    {}, {}, {}, {},
    {}, {}, {}, {},
    {}, {}, {}, {},
    {}, {}, {}, {},
    {}, {}, {}, {},
    {}, {}, {}, {},
    {}, {}, {}, {},
    {}, {}, {}, {},
    {}, {}, {}, {},
    {}, {}, {}, {},
    {}, {}, {}, {},
    {}, {}, {}, {},
    {}, {}, {}, {},
    {}, {}, {}, {},
    {}, {}, {}, {},
    {}, {}, {}, {},
    {}, {}, {}, {},
    {}, {}, {}, {},
    {}, {}, {}, {},
    {}, {}, {}, {},
    {}, {}, {}, {},
    {}, {}, {}, {},
    {}, {}, {}, {},
    {}, {}, {}, {},
    {}, {}, {}, {},
    {}, {}, {}, {},
    {}, {}, {}, {},
    {}, {}, {}, {},
    {}, {}, {}, {},
    {}, {}, {}, {},
    {}, {}, {}, {},
    {}, {}, {}, {},
    {}, {}, {}, {},
    {}, {}, {}, {},
    {}, {}, {}, {},
    {}, {}, {}, {},
    {}, {}, {}, {},
    {}, {}, {}, {},
    {}, {}, {}, {},
    {}, {}, {}, {},
    {}, {}, {}, {},
    {}, {}, {}, {},
    {}, {}, {}, {},
    {}, {}, {}, {},
    {}, {}, {}, {},
    {}, {}, {}, {},
    {}, {}, {}, {},
    {}, {}, {}, {},
    {}, {}, {}, {},
    {}, {}, {}, {},
    {}, {}, {}, {},
    {}, {}, {}, {},
    {}, {}, {}, {},
    {}, {}, {}, {},
    {}, {}, {}, {},
    {}, {}, {}, {},
    {}, {}, {}, {},
    {}, {}, {}, {},
    {}, {}, {}, {},
    {}, {}, {}, {},
    {}, {}, {}, {},
    {}, {}, {}, {},
    {}, {}, {}, {},
    {}, {}, {}, {},
    {}, {}, {}, {},
    {}, {}, {}, {},
    {}, {}, {}, {},
    {}, {}, {}, {},
    {}, {}, {}, {},
    {}, {}, {}, {},
    {}, {}, {}, {},
    {}, {}, {}, {},
    {}, {}, {}, {},
    {}, {}, {}, {},
    {}, {}, {}, {},
    {}, {}, {}, {},
    {}, {}, {}, {},
    {}, {}, {}, {},
    {}, {}, {}, {},
    {}, {}, {}, {},
    {}, {}, {}, {},
    {}, {}, {}, {},
    {}, {}, {}, {},
    {}, {}, {}, {},
    {}, {}, {}, {},
    {}, {}, {}, {},
    {}, {}, {}, {},
    {}, {}, {}, {},
    {}, {}, {}, {},
    {}, {}, {}, {},
    {}, {}, {}, {},
    {}, {}, {}, {},
    {}, {}, {}, {},
    {}, {}, {}, {},
    {}, {}, {}, {},
    {}, {}, {}, {},
    {}, {}, {}, {},
    {}, {}, {}, {},
    {}, {}, {}, {},
    {}, {}, {}, {},
    {}, {}, {}, {},
    {}, {}, {}, {},
    {}, {}, {}, {},
    {}, {}, {}, {},
    {}, {}, {}, {},

  % k = 3
    {}, {}, {}, {},
    {}, {}, {}, {},
    {}, {}, {}, {},
    {}, {}, {}, {},
    {}, {}, {}, {},
    {}, {}, {}, {},
    {}, {}, {}, {},
    {}, {}, {}, {},
    {}, {}, {}, {},
    {}, {}, {}, {},
    {}, {}, {}, {},
    {}, {}, {}, {},
    {}, {}, {}, {},
    {}, {}, {}, {},
    {}, {}, {}, {},
    {}, {}, {}, {},
    {}, {}, {}, {},
    {}, {}, {}, {},
    {}, {}, {}, {},
    {}, {}, {}, {},
    {}, {}, {}, {},
    {}, {}, {}, {},
    {}, {}, {}, {},
    {}, {}, {}, {},
    {}, {}, {}, {},
    {}, {}, {}, {},
    {}, {}, {}, {},
    {}, {}, {}, {},
    {}, {}, {}, {},
    {}, {}, {}, {},
    {}, {}, {}, {},
    {}, {}, {}, {},
    {}, {}, {}, {},
    {}, {}, {}, {},
    {}, {}, {}, {},
    {}, {}, {}, {},
    {}, {}, {}, {},
    {}, {}, {}, {},
    {}, {}, {}, {},
    {}, {}, {}, {},
    {}, {}, {}, {},
    {}, {}, {}, {},
    {}, {}, {}, {},
    {}, {}, {}, {},
    {}, {}, {}, {},
    {}, {}, {}, {},
    {}, {}, {}, {},
    {}, {}, {}, {},
    {}, {}, {}, {},
    {}, {}, {}, {},
    {}, {}, {}, {},
    {}, {}, {}, {},
    {}, {}, {}, {},
    {}, {}, {}, {},
    {}, {}, {}, {},
    {}, {}, {}, {},
    {}, {}, {}, {},
    {}, {}, {}, {},
    {}, {}, {}, {},
    {}, {}, {}, {},
    {}, {}, {}, {},
    {}, {}, {}, {},
    {}, {}, {}, {},
    {}, {}, {}, {},
    {}, {}, {}, {},
    {}, {}, {}, {},
    {}, {}, {}, {},
    {}, {}, {}, {},
    {}, {}, {}, {},
    {}, {}, {}, {},
    {}, {}, {}, {},
    {}, {}, {}, {},
    {}, {}, {}, {},
    {}, {}, {}, {},
    {}, {}, {}, {},
    {}, {}, {}, {},
    {}, {}, {}, {},
    {}, {}, {}, {},
    {}, {}, {}, {},
    {}, {}, {}, {},
    {}, {}, {}, {},
    {}, {}, {}, {},
    {}, {}, {}, {},
    {}, {}, {}, {},
    {}, {}, {}, {},
    {}, {}, {}, {},
    {}, {}, {}, {},
    {}, {}, {}, {},
    {}, {}, {}, {},
    {}, {}, {}, {},
    {}, {}, {}, {},
    {}, {}, {}, {},
    {}, {}, {}, {},
    {}, {}, {}, {},
    {}, {}, {}, {},
    {}, {}, {}, {},
    {}, {}, {}, {},
    {}, {}, {}, {},
    {}, {}, {}, {},
    {}, {}, {}, {},
    {}, {}, {}, {},
    {}, {}, {}, {},
    {}, {}, {}, {},
    {}, {}, {}, {},
    {}, {}, {}, {},
    {}, {}, {}, {},
    {}, {}, {}, {},
    {}, {}, {}, {},
    {}, {}, {}, {},
    {}, {}, {}, {},
    {}, {}, {}, {},
    {}, {}, {}, {},
    {}, {}, {}, {},
    {}, {}, {}, {},
    {}, {}, {}, {},
    {}, {}, {}, {},
    {}, {}, {}, {},
    {}, {}, {}, {},
    {}, {}, {}, {},
    {}, {}, {}, {},
    {}, {}, {}, {},
    {}, {}, {}, {},
    {}, {}, {}, {},
    {}, {}, {}, {},
    {}, {}, {}, {},
    {}, {}, {}, {},
    {}, {}, {}, {},
    {}, {}, {}, {},
    {}, {}, {}, {}
]);
